c ---- [ banner ] ------------------------------------------------------------
c
c Kissat SAT Solver
c 
c Copyright (c) 2021-2024 Armin Biere University of Freiburg
c Copyright (c) 2019-2021 Armin Biere Johannes Kepler University Linz
c 
c Version 4.0.1 43f02cf3e992cb44653b35e5cb26f93281552ae0
c gcc (Ubuntu 13.2.0-23ubuntu4) 13.2.0 -W -Wall -O3 -DNDEBUG
c Thu Sep 12 12:27:46 CEST 2024 Linux abryzen9 6.8.0-41-generic x86_64
c
c ---- [ parsing ] -----------------------------------------------------------
c
c opened and reading DIMACS file:
c
c   /data/artifact/AMulet2.0_artifact/exp4/cnf_resyn3_64/64_64_U1_4to2_KS_Multgen_resyn3.cnf
c
c parsed 'p cnf 20282 77110' header
c closing input after reading 1483366 bytes (1 MB)
c finished parsing after 0.01 seconds
c
c ---- [ options ] -----------------------------------------------------------
c
c --stable=0                       (different from default '1')
c
c ---- [ solving ] -----------------------------------------------------------
c
c  seconds switched rate     size/glue tier1  binary          remaining
c         MB reductions conflicts size  tier2     irredundant
c          level restarts redundant glue  trail          variables
c
c *  0.01  8 0 0 0  0 0   0   0 0.0 0 0 0 0 0% 13580 63528 20279 100%
c (  0.02  8 0 0 0  0 0   0   0 0.0 0 0 0 0 0% 13580 63528 20279 100%
c .  0.02  8 0 0 0  0 0   0   0 0.0 0 0 0 0 0% 13576 63528 20279 100%
c c  0.05 12 0 0 0  0 0   0   0 0.0 0 0 0 0 0% 13766 63218 20161 99%
c d  0.05 12 0 0 0  0 0   0   0 0.0 0 0 0 0 0% 13522 63218 20161 99%
c =  0.08 12 0 0 0  0 0   0   0 0.0 0 0 0 0 0% 13488 63218 20160 99%
c d  0.08 12 0 0 0  0 0   0   0 0.0 0 0 0 0 0% 13486 63218 20160 99%
c f  0.11 12 0 0 0  0 0   0   0 0.0 0 0 0 0 0% 13466 63202 20170 99%
c e  0.17 17 0 0 0  0 0   0   0 0.0 0 0 0 0 0% 6775 66685 14801 73%
c )  0.17 17 0 0 0  0 0   0   0 0.0 0 0 0 0 0% 6775 66685 14801 73%
c {  0.17 17 0 0 0  0 0   0   0 0.0 0 0 2 6 0% 6775 66685 14801 73%
c i  0.19 17 85 0 0 214 29 598 444 1.6 6 4 3 9 11% 6898 66685 14800 73%
c -  0.22 17 88 0 1 314 26 1001 717 1.6 6 4 3 8 14% 6910 66681 14800 73%
c -  0.31 17 88 0 2 673 31 2001 1481 1.7 8 5 3 9 15% 6915 66681 14800 73%
c c  0.37 17 90 0 2 746 28 2509 1944 1.8 9 5 3 9 16% 6940 66666 14795 73%
c d  0.37 17 90 0 2 746 28 2509 1944 1.8 9 5 3 9 16% 6930 66666 14795 73%
c b  0.37 17 90 0 2 746 28 2509 1944 1.8 9 5 3 9 16% 6930 66666 14794 73%
c u  0.38 17 90 0 2 746 28 2509 1364 1.8 9 5 3 9 16% 6933 66666 14794 73%
c v  0.38 17 90 0 2 746 28 2509 1259 1.8 9 5 3 9 16% 6933 66666 14794 73%
c w  0.39 17 90 0 2 746 28 2509 1259 1.8 9 5 3 9 16% 6933 66666 14794 73%
c
c  seconds  switched   rate       size/glue tier1   binary         remaining
c         MB reductions conflicts      size  tier2     irredundant
c          level restarts    redundant   glue   trail         variables
c
c x  0.40 17 90 0 2 746 28 2509 1259 1.8 9 5 3 9 16% 6983 66546 14793 73%
c =  0.43 17 90 0 2 746 28 2509 1259 1.8 9 5 3 9 16% 6994 66533 14786 73%
c d  0.44 17 90 0 2 746 28 2509 1258 1.8 9 5 3 9 16% 6982 66528 14784 73%
c t  0.44 17 90 0 2 746 28 2509 1258 1.8 9 5 3 9 16% 6925 66528 14784 73%
c f  0.45 17 90 0 2 746 28 2509 1258 1.8 9 5 3 9 16% 7219 66081 14931 74%
c u  0.46 17 90 0 2 746 28 2509 1214 1.8 9 5 3 9 16% 7220 66081 14931 74%
c v  0.47 17 90 0 2 746 28 2509 1101 1.8 9 5 3 9 16% 7220 66081 14931 74%
c w  0.47 17 90 0 2 746 28 2509 1100 1.8 9 5 3 9 16% 7220 66081 14931 74%
c x  0.48 17 90 0 2 746 28 2509 1100 1.8 9 5 3 9 16% 7243 66033 14928 74%
c t  0.52 17 90 0 2 746 28 2509 1100 1.8 9 5 3 9 16% 7249 66022 14928 74%
c b  0.52 17 90 0 2 746 28 2509 1100 1.8 9 5 3 9 16% 7249 66022 14927 74%
c f  0.53 17 90 0 2 746 28 2509 1100 1.8 9 5 3 9 16% 7621 65464 15113 75%
c i  0.53 17 90 0 2 746 28 2509 1100 1.8 9 5 3 9 16% 7621 65464 15113 75%
c -  0.62 17 98 0 3 922 28 3415 1657 1.8 9 5 3 9 19% 7605 65464 15113 75%
c -  0.77 17 100 0 4 1192 26 5147 2823 1.8 10 5 3 9 20% 7614 65464 15113 75%
c -  0.89 17 107 0 5 1380 24 7147 4050 1.9 10 5 3 9 21% 7628 65463 15113 75%
c c  0.95 17 104 0 5 1453 23 7727 4587 1.9 10 5 3 9 20% 7697 65367 15086 74%
c d  0.96 17 104 0 5 1453 23 7727 4584 1.9 10 5 3 9 20% 7646 65364 15086 74%
c d  0.96 17 104 0 5 1453 23 7727 4584 1.9 10 5 3 9 20% 7644 65364 15085 74%
c b  0.96 17 104 0 5 1453 23 7727 4584 1.9 10 5 3 9 20% 7644 65364 15083 74%
c
c  seconds   switched    rate       size/glue tier1    binary         remaining
c         MB  reductions  conflicts       size  tier2     irredundant
c           level  restarts    redundant    glue   trail         variables
c
c u  0.97 17 104 0 5 1453 23 7727 3622 1.9 10 5 3 9 20% 7625 65364 15083 74%
c v  0.99 17 104 0 5 1453 23 7727 3436 1.9 10 5 3 9 20% 7625 65364 15083 74%
c w  0.99 17 104 0 5 1453 23 7727 3428 1.9 10 5 3 9 20% 7625 65364 15083 74%
c x  1.01 17 104 0 5 1453 23 7727 3428 1.9 10 5 3 9 20% 7643 65291 15082 74%
c d  1.01 17 104 0 5 1453 23 7727 3428 1.9 10 5 3 9 20% 7642 65288 15081 74%
c t  1.02 17 104 0 5 1453 23 7727 3428 1.9 10 5 3 9 20% 7614 65288 15080 74%
c f  1.03 17 104 0 5 1453 23 7727 3428 1.9 10 5 3 9 20% 8480 63983 15513 76%
c u  1.08 17 104 0 5 1453 23 7727 3057 1.9 10 5 3 9 20% 8474 63978 15513 76%
c v  1.09 17 104 0 5 1453 23 7727 2853 1.9 10 5 3 9 20% 8474 63978 15513 76%
c w  1.10 17 104 0 5 1453 23 7727 2842 1.9 10 5 3 9 20% 8474 63978 15513 76%
c x  1.11 17 104 0 5 1453 23 7727 2842 1.9 10 5 3 9 20% 8484 63839 15513 76%
c t  1.16 17 104 0 5 1453 23 7727 2842 1.9 10 5 3 9 20% 8483 63839 15513 76%
c f  1.18 17 104 0 5 1453 23 7727 2842 1.9 10 5 3 9 20% 9687 62033 16115 79%
c i  1.18 17 104 0 5 1453 23 7727 2842 1.9 10 5 3 9 20% 9687 62033 16115 79%
c i  1.23 17 103 0 5 1506 23 8406 3427 1.9 10 5 3 9 20% 9701 62033 16114 79%
c i  1.27 17 106 0 5 1548 23 8803 3795 1.9 10 5 3 9 21% 9710 62033 16113 79%
c -  1.30 17 107 0 6 1579 22 9383 3592 1.9 10 5 3 9 21% 9707 62033 16113 79%
c o  1.36 17 107 0 6 1696 22 10001 4169 1.9 10 5 3 9 21% 9708 62033 16113 79%
c -  1.48 17 107 0 7 1874 21 11833 4890 1.9 11 5 3 9 21% 9735 62033 16113 79%
c s  1.55 17 107 0 7 1980 21 12542 5545 1.9 11 6 3 9 22% 9745 61922 16113 79%
c
c  seconds   switched    rate        size/glue tier1    binary         remaining
c         MB  reductions   conflicts       size  tier2     irredundant
c           level  restarts     redundant    glue   trail         variables
c
c e  1.63 17 107 0 7 1980 21 12542 5545 1.9 11 6 3 9 22% 8222 63003 14445 71%
c 2  1.63 17 107 0 7 1980 21 12542 5545 1.9 11 6 3 9 22% 8221 63003 14445 71%
c s  1.64 17 107 0 7 1980 21 12542 5545 1.9 11 6 3 9 22% 8230 62667 14445 71%
c e  1.64 17 107 0 7 1980 21 12542 5545 1.9 11 6 3 9 22% 8181 62708 14416 71%
c ^  1.64 17 107 0 7 1980 21 12542 5545 1.9 11 6 3 9 22% 8181 62708 14416 71%
c i  1.81 17 108 0 7 2163 21 14275 5538 1.9 10 6 3 9 23% 8196 62708 14415 71%
c -  1.83 17 108 0 8 2184 21 14479 4857 1.9 10 6 3 9 23% 8201 62698 14415 71%
c i  1.84 17 108 0 8 2194 21 14539 4898 1.9 10 6 3 9 23% 8204 62698 14414 71%
c d  1.93 17 107 0 8 2341 20 15833 6119 1.9 10 6 3 9 23% 8201 62686 14409 71%
c d  1.93 17 107 0 8 2341 20 15833 6116 1.9 10 6 3 9 23% 8197 62686 14407 71%
c u  1.95 17 107 0 8 2341 20 15833 4465 1.9 10 6 3 9 23% 8201 62686 14407 71%
c v  1.97 17 107 0 8 2341 20 15833 4180 1.9 10 6 3 9 23% 8201 62686 14407 71%
c w  1.98 17 107 0 8 2341 20 15833 4178 1.9 10 6 3 9 23% 8201 62686 14407 71%
c x  1.99 17 107 0 8 2341 20 15833 4178 1.9 10 6 3 9 23% 8201 62646 14407 71%
c t  2.01 17 107 0 8 2341 20 15833 4178 1.9 10 6 3 9 23% 8178 62646 14407 71%
c f  2.04 17 107 0 8 2341 20 15833 4178 1.9 10 6 3 9 23% 8232 62400 14496 71%
c c  2.08 17 107 0 8 2341 20 15833 4172 1.9 10 6 3 9 23% 8246 62361 14488 71%
c d  2.08 17 107 0 8 2341 20 15833 4172 1.9 10 6 3 9 23% 8230 62361 14488 71%
c u  2.10 17 107 0 8 2341 20 15833 3866 1.9 10 6 3 9 23% 8233 62361 14488 71%
c v  2.12 17 107 0 8 2341 20 15833 3594 1.9 10 6 3 9 23% 8233 62361 14488 71%
c
c  seconds   switched    rate        size/glue tier1    binary         remaining
c         MB  reductions   conflicts       size  tier2     irredundant
c           level  restarts     redundant    glue   trail         variables
c
c w  2.14 17 107 0 8 2341 20 15833 3584 1.9 10 6 3 9 23% 8233 62361 14488 71%
c d  2.14 17 107 0 8 2341 20 15833 3583 1.9 10 6 3 9 23% 8229 62361 14486 71%
c t  2.15 17 107 0 8 2341 20 15833 3583 1.9 10 6 3 9 23% 8224 62361 14486 71%
c f  2.18 17 107 0 8 2341 20 15833 3583 1.9 10 6 3 9 23% 8268 62220 14528 72%
c -  2.32 17 108 0 9 2476 20 17307 4072 1.9 10 6 3 9 24% 8283 62219 14528 72%
c o  2.50 17 109 0 9 2713 19 20013 6617 1.9 10 6 3 9 24% 8297 62217 14528 72%
c i  2.51 17 109 0 9 2726 19 20204 6758 1.9 10 6 3 9 24% 8308 62217 14527 72%
c -  2.53 17 109 0 10 2729 19 20310 5827 1.9 10 6 3 9 24% 8307 62217 14527 72%
c i  2.70 17 109 0 10 2907 19 22110 7543 1.9 11 6 3 9 24% 8312 62217 14526 72%
c -  2.77 17 109 0 11 3023 19 23472 7563 1.9 11 6 3 9 25% 8322 62214 14526 72%
c i  2.80 17 109 0 11 3039 19 23637 7720 1.9 11 6 3 9 25% 8323 62214 14525 72%
c s  2.90 17 111 0 11 3204 19 25092 9100 1.9 11 6 3 9 25% 8331 62110 14525 72%
c e  2.99 17 111 0 11 3204 19 25092 9100 1.9 11 6 3 9 25% 4840 67407 12522 62%
c 2  2.99 17 111 0 11 3204 19 25092 9100 1.9 11 6 3 9 25% 4839 67407 12522 62%
c s  3.01 17 111 0 11 3204 19 25092 9100 1.9 11 6 3 9 25% 4855 67210 12522 62%
c e  3.01 17 111 0 11 3204 19 25092 9100 1.9 11 6 3 9 25% 4855 67212 12520 62%
c ^  3.01 17 111 0 11 3204 19 25092 9100 1.9 11 6 3 9 25% 4855 67212 12520 62%
c -  3.16 17 111 0 12 3340 19 26788 6858 1.9 11 6 3 9 25% 4869 67211 12520 62%
c u  3.20 17 112 0 12 3359 19 27009 4918 1.9 11 6 3 9 25% 4875 67211 12520 62%
c v  3.22 17 112 0 12 3359 19 27009 4427 1.9 11 6 3 9 25% 4876 67211 12520 62%
c
c  seconds   switched     rate        size/glue tier1    binary         remaining
c         MB   reductions   conflicts       size  tier2     irredundant
c           level   restarts     redundant    glue   trail         variables
c
c w  3.23 17 112 0 12 3359 19 27009 4423 1.9 11 6 3 9 25% 4876 67211 12520 62%
c x  3.25 17 112 0 12 3359 19 27009 4422 1.9 11 6 3 9 25% 4920 67070 12519 62%
c =  3.36 17 112 0 12 3359 19 27009 4422 1.9 11 6 3 9 25% 4960 67059 12496 62%
c d  3.36 17 112 0 12 3359 19 27009 4403 1.9 11 6 3 9 25% 4886 67053 12488 62%
c d  3.37 17 112 0 12 3359 19 27009 4403 1.9 11 6 3 9 25% 4880 67053 12485 62%
c t  3.37 17 112 0 12 3359 19 27009 4403 1.9 11 6 3 9 25% 4843 67053 12485 62%
c f  3.40 17 112 0 12 3359 19 27009 4403 1.9 11 6 3 9 25% 4871 66938 12512 62%
c u  3.43 17 112 0 12 3359 19 27009 3816 1.9 11 6 3 9 25% 4874 66938 12512 62%
c v  3.44 17 112 0 12 3359 19 27009 3729 1.9 11 6 3 9 25% 4874 66938 12512 62%
c w  3.45 17 112 0 12 3359 19 27009 3727 1.9 11 6 3 9 25% 4874 66938 12512 62%
c x  3.48 17 112 0 12 3359 19 27009 3725 1.9 11 6 3 9 25% 4888 66655 12512 62%
c t  3.49 17 112 0 12 3359 19 27009 3725 1.9 11 6 3 9 25% 4877 66655 12512 62%
c f  3.51 17 112 0 12 3359 19 27009 3725 1.9 11 6 3 9 25% 4883 66627 12518 62%
c i  3.51 17 112 0 12 3359 19 27009 3725 1.9 11 6 3 9 25% 4883 66627 12518 62%
c -  3.78 17 112 0 13 3671 18 30252 5618 1.8 11 6 3 9 26% 4903 66617 12518 62%
c i  3.97 17 111 0 13 3924 18 33244 8366 1.8 11 6 3 9 25% 4928 66611 12517 62%
c -  4.01 17 111 0 14 3971 18 33857 7668 1.8 11 6 3 9 25% 4933 66610 12517 62%
c i  4.18 17 111 0 14 4201 18 36193 9829 1.8 11 6 3 9 25% 4949 66604 12516 62%
c -  4.27 23 111 0 15 4335 18 37598 9510 1.8 11 6 3 9 25% 4962 66604 12516 62%
c o  4.47 23 110 0 15 4657 18 40016 11759 1.8 11 6 3 9 25% 4970 66601 12516 62%
c
c  seconds   switched     rate         size/glue tier1    binary         remaining
c         MB   reductions   conflicts        size  tier2     irredundant
c           level   restarts      redundant    glue   trail         variables
c
c c  4.61 17 110 0 15 4806 18 41392 12982 1.8 11 6 3 9 25% 5022 66449 12478 62%
c d  4.61 17 110 0 15 4806 18 41392 12899 1.8 11 6 3 9 25% 4948 66447 12478 62%
c d  4.61 17 110 0 15 4806 18 41392 12899 1.8 11 6 3 9 25% 4946 66447 12477 62%
c u  4.64 17 110 0 15 4806 18 41392 11471 1.8 11 6 3 9 25% 4940 66447 12477 62%
c v  4.67 17 110 0 15 4806 18 41392 11052 1.8 11 6 3 9 25% 4940 66447 12477 62%
c w  4.68 17 110 0 15 4806 18 41392 11041 1.8 11 6 3 9 25% 4940 66447 12477 62%
c x  4.70 17 110 0 15 4806 18 41392 11040 1.8 11 6 3 9 25% 4940 66423 12477 62%
c =  4.84 17 110 0 15 4806 18 41392 11040 1.8 11 6 3 9 25% 5048 66408 12423 61%
c d  4.84 17 110 0 15 4806 18 41392 10991 1.8 11 6 3 9 25% 4935 66408 12423 61%
c t  4.85 17 110 0 15 4806 18 41392 10991 1.8 11 6 3 9 25% 4917 66408 12423 61%
c f  4.86 17 110 0 15 4806 18 41392 10991 1.8 11 6 3 9 25% 4921 66386 12428 61%
c u  4.90 17 110 0 15 4806 18 41392 8709 1.8 11 6 3 9 25% 4944 66386 12427 61%
c v  4.95 17 110 0 15 4806 18 41392 8034 1.8 11 6 3 9 25% 4946 66386 12427 61%
c w  4.97 17 110 0 15 4806 18 41392 8014 1.8 11 6 3 9 25% 4946 66386 12427 61%
c =  5.15 17 110 0 15 4806 18 41392 8014 1.8 11 6 3 9 25% 5030 66347 12383 61%
c d  5.15 17 110 0 15 4806 18 41392 7971 1.8 11 6 3 9 25% 4930 66347 12383 61%
c t  5.16 17 110 0 15 4806 18 41392 7971 1.8 11 6 3 9 25% 4911 66347 12383 61%
c f  5.17 17 110 0 15 4806 18 41392 7971 1.8 11 6 3 9 25% 4913 66341 12384 61%
c i  5.17 17 110 0 15 4806 18 41392 7971 1.8 11 6 3 9 25% 4913 66341 12384 61%
c -  5.18 17 110 0 16 4816 18 41471 6626 1.8 11 6 3 9 25% 4903 66341 12384 61%
c
c  seconds   switched     rate        size/glue tier1    binary         remaining
c         MB   reductions   conflicts       size  tier2     irredundant
c           level   restarts     redundant    glue   trail         variables
c
c -  5.43 19 110 0 17 5104 18 45471 8763 1.8 11 6 3 9 25% 4920 66340 12384 61%
c -  5.75 19 111 0 18 5475 17 49594 10122 1.8 11 6 2 9 25% 4938 66340 12384 61%
c s  5.94 19 111 0 18 5709 17 52291 12597 1.8 11 6 2 9 25% 4957 65881 12384 61%
c e  6.04 19 111 0 18 5709 17 52291 12597 1.8 11 6 2 9 25% 3121 70158 10997 54%
c s  6.05 19 111 0 18 5709 17 52291 12597 1.8 11 6 2 9 25% 3128 69875 10997 54%
c e  6.06 19 111 0 18 5709 17 52291 12597 1.8 11 6 2 9 25% 3110 69914 10981 54%
c ^  6.06 19 111 0 18 5709 17 52291 12597 1.8 11 6 2 9 25% 3110 69914 10981 54%
c -  6.23 19 111 0 19 5890 17 53837 9003 1.8 11 6 2 8 25% 3112 69914 10981 54%
c -  6.61 19 113 0 20 6370 18 58195 10900 1.8 11 6 2 8 26% 3119 69913 10981 54%
c c  6.71 19 113 0 20 6488 18 59086 11745 1.8 11 6 2 8 26% 3132 69887 10976 54%
c d  6.71 19 113 0 20 6488 18 59086 11744 1.8 11 6 2 8 26% 3122 69887 10976 54%
c u  6.74 19 113 0 20 6488 18 59086 9098 1.8 11 6 2 8 26% 3140 69887 10976 54%
c v  6.78 19 113 0 20 6488 18 59086 7809 1.8 11 6 2 8 26% 3140 69887 10976 54%
c w  6.79 19 113 0 20 6488 18 59086 7793 1.8 11 6 2 8 26% 3140 69887 10976 54%
c x  6.82 19 113 0 20 6488 18 59086 7793 1.8 11 6 2 8 26% 3144 69874 10976 54%
c =  7.00 19 113 0 20 6488 18 59086 7793 1.8 11 6 2 8 26% 3196 69857 10950 54%
c d  7.01 19 113 0 20 6488 18 59086 7777 1.8 11 6 2 8 26% 3133 69856 10948 54%
c t  7.01 19 113 0 20 6488 18 59086 7777 1.8 11 6 2 8 26% 3106 69856 10948 54%
c f  7.06 19 113 0 20 6488 18 59086 7777 1.8 11 6 2 8 26% 3109 69772 10962 54%
c u  7.08 19 113 0 20 6488 18 59086 7443 1.8 11 6 2 8 26% 3113 69772 10962 54%
c
c  seconds   switched     rate        size/glue tier1    binary         remaining
c         MB   reductions   conflicts       size  tier2     irredundant
c           level   restarts     redundant    glue   trail         variables
c
c v  7.11 19 113 0 20 6488 18 59086 6412 1.8 11 6 2 8 26% 3114 69772 10962 54%
c w  7.12 19 113 0 20 6488 18 59086 6398 1.8 11 6 2 8 26% 3114 69772 10962 54%
c =  7.31 19 113 0 20 6488 18 59086 6398 1.8 11 6 2 8 26% 3354 69734 10841 53%
c d  7.31 19 113 0 20 6488 18 59086 6329 1.8 11 6 2 8 26% 3105 69734 10841 53%
c t  7.32 19 113 0 20 6488 18 59086 6329 1.8 11 6 2 8 26% 3009 69734 10841 53%
c f  7.34 19 113 0 20 6488 18 59086 6329 1.8 11 6 2 8 26% 3002 69679 10852 54%
c -  7.61 19 114 0 21 6748 18 62667 7992 1.8 11 6 2 8 26% 3012 69677 10852 54%
c i  7.62 19 115 0 21 6766 18 62833 8139 1.8 11 6 2 8 26% 3016 69677 10851 54%
c -  7.94 19 115 0 22 7199 18 67250 10166 1.8 11 6 2 8 26% 3026 69673 10851 54%
c i  8.03 19 114 0 22 7321 18 68160 10995 1.8 11 6 2 8 26% 3031 69671 10850 53%
c o  8.19 19 114 0 22 7471 18 70033 12707 1.8 11 6 2 8 26% 3043 69671 10850 53%
c i  8.26 19 114 0 22 7557 18 70662 13269 1.8 11 6 2 8 26% 3047 69670 10849 53%
c -  8.37 19 115 0 23 7721 18 71940 11896 1.8 11 6 2 8 26% 3047 69670 10849 53%
c -  8.71 19 115 0 24 8136 18 76735 13458 1.8 11 6 2 8 26% 3070 69666 10849 53%
c i  8.98 19 115 0 24 8486 18 80114 16597 1.8 11 6 2 8 26% 3077 69663 10848 53%
c d  8.99 19 115 0 24 8507 18 80209 16639 1.8 11 6 2 8 26% 3066 69619 10836 53%
c d  8.99 19 115 0 24 8507 18 80209 16633 1.8 11 6 2 8 26% 3051 69615 10829 53%
c u  9.04 19 115 0 24 8507 18 80209 13304 1.8 11 6 2 8 26% 3067 69615 10828 53%
c v  9.10 19 115 0 24 8507 18 80209 10506 1.8 11 6 2 8 26% 3070 69615 10828 53%
c w  9.13 19 115 0 24 8507 18 80209 10477 1.8 11 6 2 8 26% 3069 69615 10828 53%
c
c  seconds   switched     rate         size/glue tier1    binary         remaining
c         MB   reductions   conflicts        size  tier2     irredundant
c           level   restarts      redundant    glue   trail         variables
c
c =  9.34 19 115 0 24 8507 18 80209 10477 1.8 11 6 2 8 26% 3071 69604 10827 53%
c d  9.34 19 115 0 24 8507 18 80209 10471 1.8 11 6 2 8 26% 3062 69602 10823 53%
c t  9.35 19 115 0 24 8507 18 80209 10471 1.8 11 6 2 8 26% 3038 69602 10823 53%
c f  9.36 19 115 0 24 8507 18 80209 10471 1.8 11 6 2 8 26% 3040 69594 10824 53%
c c  9.39 19 115 0 24 8507 18 80209 10446 1.8 11 6 2 8 26% 3048 69544 10817 53%
c d  9.39 19 115 0 24 8507 18 80209 10446 1.8 11 6 2 8 26% 3034 69544 10817 53%
c u  9.42 19 115 0 24 8507 18 80209 10031 1.8 11 6 2 8 26% 3042 69544 10817 53%
c v  9.46 19 115 0 24 8507 18 80209 9579 1.8 11 6 2 8 26% 3042 69544 10817 53%
c w  9.49 19 115 0 24 8507 18 80209 9522 1.8 11 6 2 8 26% 3042 69544 10817 53%
c x  9.53 19 115 0 24 8507 18 80209 9517 1.8 11 6 2 8 26% 3061 68598 10817 53%
c =  9.75 19 115 0 24 8507 18 80209 9517 1.8 11 6 2 8 26% 3213 68574 10740 53%
c d  9.75 19 115 0 24 8507 18 80209 9427 1.8 11 6 2 8 26% 3039 68574 10740 53%
c t  9.76 19 115 0 24 8507 18 80209 9427 1.8 11 6 2 8 26% 2991 68574 10740 53%
c f  9.77 19 115 0 24 8507 18 80209 9427 1.8 11 6 2 8 26% 2980 68558 10745 53%
c i  9.77 19 115 0 24 8507 18 80209 9427 1.8 11 6 2 8 26% 2980 68558 10745 53%
c i  9.79 19 115 0 24 8545 18 80493 9698 1.8 11 6 2 8 26% 2982 68558 10744 53%
c -  9.89 19 115 0 25 8641 18 81633 8923 1.8 11 6 2 8 26% 2976 68556 10744 53%
c i 10.00 19 115 0 25 8750 18 82994 10151 1.8 11 6 2 8 26% 2984 68556 10743 53%
c i 10.04 19 115 0 25 8797 17 83915 11013 1.8 11 6 2 8 26% 2987 68556 10742 53%
c i 10.04 19 115 0 25 8797 17 84081 11135 1.8 11 6 2 8 26% 2996 68556 10740 53%
c
c  seconds   switched     rate         size/glue tier1    binary         remaining
c         MB   reductions   conflicts        size  tier2     irredundant
c           level   restarts      redundant    glue   trail         variables
c
c i 10.04 19 116 0 25 8797 17 84202 11236 1.8 11 6 2 8 26% 2998 68556 10737 53%
c - 10.21 19 115 0 26 9014 17 86633 11302 1.8 11 6 2 8 26% 2991 68555 10737 53%
c i 10.45 19 116 0 26 9304 17 89248 13741 1.8 11 6 2 8 27% 2999 68554 10736 53%
c i 10.55 19 115 0 26 9456 17 90547 14940 1.8 11 6 2 8 27% 3000 68554 10735 53%
c - 10.66 19 116 0 27 9565 17 91733 13407 1.8 11 6 2 8 27% 2997 68554 10735 53%
c i 10.70 19 116 0 27 9623 17 92187 13818 1.8 11 6 2 8 27% 3000 68554 10734 53%
c s 10.93 19 116 0 27 9894 17 96087 17464 1.8 11 6 2 8 26% 3019 68085 10734 53%
c e 11.03 19 116 0 27 9894 17 96087 17464 1.8 11 6 2 8 26% 2437 69915 10254 51%
c 2 11.03 19 116 0 27 9894 17 96087 17464 1.8 11 6 2 8 26% 2430 69915 10254 51%
c s 11.04 19 116 0 27 9894 17 96087 17464 1.8 11 6 2 8 26% 2451 69420 10254 51%
c e 11.05 19 116 0 27 9894 17 96087 17464 1.8 11 6 2 8 26% 2413 69531 10233 50%
c ^ 11.05 19 116 0 27 9894 17 96087 17464 1.8 11 6 2 8 26% 2413 69531 10233 50%
c - 11.14 19 115 0 28 10008 17 96929 13491 1.8 11 6 2 8 26% 2414 69531 10233 50%
c i 11.24 19 115 0 28 10120 17 98183 14649 1.8 11 6 2 8 26% 2420 69530 10232 50%
c i 11.27 19 115 0 28 10174 17 98680 15100 1.8 11 6 2 8 26% 2424 69530 10231 50%
c - 11.51 19 115 0 29 10464 17 102221 15283 1.8 11 6 2 8 26% 2422 69530 10231 50%
c d 11.78 19 115 0 29 10785 17 104903 17842 1.8 11 6 2 8 26% 2430 69503 10230 50%
c d 11.78 19 115 0 29 10785 17 104903 17840 1.8 11 6 2 8 26% 2422 69503 10226 50%
c u 11.82 19 115 0 29 10785 17 104903 14075 1.8 11 6 2 8 26% 2434 69503 10226 50%
c v 11.88 19 115 0 29 10785 17 104903 11119 1.8 11 6 2 8 26% 2438 69503 10225 50%
c
c  seconds   switched      rate          size/glue tier1    binary         remaining
c         MB   reductions    conflicts         size  tier2     irredundant
c           level   restarts        redundant    glue   trail         variables
c
c w 11.91 19 115 0 29 10785 17 104903 11048 1.8 11 6 2 8 26% 2438 69503 10225 50%
c t 12.16 19 115 0 29 10785 17 104903 11031 1.8 11 6 2 8 26% 2411 69493 10225 50%
c f 12.19 19 115 0 29 10785 17 104903 11031 1.8 11 6 2 8 26% 2418 69413 10232 50%
c d 12.20 19 115 0 29 10785 17 104903 11031 1.8 11 6 2 8 26% 2416 69413 10231 50%
c u 12.23 19 115 0 29 10785 17 104903 10552 1.8 11 6 2 8 26% 2421 69413 10231 50%
c v 12.27 19 115 0 29 10785 17 104903 10143 1.8 11 6 2 8 26% 2421 69413 10231 50%
c w 12.30 19 115 0 29 10785 17 104903 10080 1.8 11 6 2 8 26% 2421 69413 10231 50%
c x 12.36 19 115 0 29 10785 17 104903 10078 1.8 11 6 2 8 26% 2424 69283 10231 50%
c d 12.36 19 115 0 29 10785 17 104903 10077 1.8 11 6 2 8 26% 2422 69283 10230 50%
c t 12.37 19 115 0 29 10785 17 104903 10077 1.8 11 6 2 8 26% 2420 69283 10230 50%
c i 12.38 19 115 0 29 10785 17 104903 10077 1.8 11 6 2 8 26% 2420 69283 10230 50%
c i 12.47 19 115 0 29 10862 17 105904 11016 1.8 11 6 2 8 26% 2425 69283 10229 50%
c - 12.62 19 115 0 30 11007 17 107606 10431 1.7 11 6 2 8 26% 2415 69283 10229 50%
c o 12.78 19 114 0 30 11148 17 110296 12875 1.7 11 6 2 8 26% 2420 69283 10229 50%
c i 12.94 19 113 0 30 11357 17 112808 15225 1.7 11 6 2 8 26% 2429 69283 10228 50%
c - 12.96 19 113 0 31 11389 17 113084 13008 1.7 11 6 2 8 26% 2420 69283 10228 50%
c - 13.20 19 111 0 32 11640 16 118655 15253 1.8 11 6 2 8 25% 2454 69281 10228 50%
c i 13.20 19 111 0 32 11640 16 118734 15311 1.8 11 6 2 8 25% 2457 69281 10227 50%
c - 13.52 19 110 0 33 12077 16 124311 17117 1.7 11 6 2 8 25% 2477 69280 10227 50%
c i 13.79 20 107 0 33 12487 16 129893 22214 1.8 11 6 2 8 24% 2505 69280 10226 50%
c
c  seconds   switched      rate          size/glue tier1    binary         remaining
c         MB   reductions    conflicts         size  tier2     irredundant
c           level   restarts        redundant    glue   trail         variables
c
c - 13.80 20 107 0 34 12492 16 130055 18890 1.8 11 6 2 8 24% 2503 69280 10226 50%
c i 13.83 20 107 0 34 12536 16 130608 19389 1.8 11 6 2 8 24% 2510 69280 10225 50%
c i 13.94 20 107 0 34 12670 16 132747 21368 1.8 11 6 2 8 24% 2523 69280 10224 50%
c d 13.97 20 107 0 34 12711 16 133234 21481 1.8 11 6 2 8 24% 2502 69213 10202 50%
c d 13.97 20 107 0 34 12711 16 133234 21468 1.8 11 6 2 8 24% 2488 69211 10195 50%
c u 14.02 20 107 0 34 12711 16 133234 18364 1.8 11 6 2 8 24% 2515 69211 10195 50%
c v 14.07 20 107 0 34 12711 16 133234 16957 1.8 11 6 2 8 24% 2515 69211 10195 50%
c w 14.09 20 107 0 34 12711 16 133234 16933 1.8 11 6 2 8 24% 2515 69211 10195 50%
c = 14.30 20 107 0 34 12711 16 133234 16933 1.8 11 6 2 8 24% 2573 69209 10166 50%
c d 14.30 20 107 0 34 12711 16 133234 16824 1.8 11 6 2 8 24% 2492 69209 10166 50%
c t 14.31 20 107 0 34 12711 16 133234 16824 1.8 11 6 2 8 24% 2437 69209 10166 50%
c f 14.32 20 107 0 34 12711 16 133234 16824 1.8 11 6 2 8 24% 2433 69204 10167 50%
c c 14.35 20 107 0 34 12711 16 133234 16796 1.8 11 6 2 8 24% 2439 69182 10162 50%
c d 14.35 20 107 0 34 12711 16 133234 16796 1.8 11 6 2 8 24% 2429 69182 10162 50%
c u 14.40 20 107 0 34 12711 16 133234 14784 1.8 11 6 2 8 24% 2436 69182 10161 50%
c v 14.45 20 107 0 34 12711 16 133234 12984 1.8 11 6 2 8 24% 2444 69182 10161 50%
c w 14.47 20 107 0 34 12711 16 133234 12894 1.8 11 6 2 8 24% 2444 69182 10161 50%
c = 14.54 20 107 0 34 12711 16 133234 12894 1.8 11 6 2 8 24% 2504 69150 10131 50%
c d 14.55 20 107 0 34 12711 16 133234 12851 1.8 11 6 2 8 24% 2435 69148 10130 50%
c d 14.55 20 107 0 34 12711 16 133234 12851 1.8 11 6 2 8 24% 2433 69148 10129 50%
c
c  seconds   switched      rate          size/glue tier1    binary         remaining
c         MB   reductions    conflicts         size  tier2     irredundant
c           level   restarts        redundant    glue   trail         variables
c
c t 14.56 20 107 0 34 12711 16 133234 12851 1.8 11 6 2 8 24% 2394 69148 10129 50%
c f 14.57 20 107 0 34 12711 16 133234 12851 1.8 11 6 2 8 24% 2396 69099 10133 50%
c i 14.57 20 107 0 34 12711 16 133234 12851 1.8 11 6 2 8 24% 2396 69099 10133 50%
c i 14.63 20 106 0 34 12777 15 134819 14282 1.8 11 6 2 8 23% 2415 69097 10132 50%
c - 14.66 20 106 0 35 12807 15 135885 12872 1.8 11 6 2 8 23% 2413 69094 10132 50%
c i 14.67 20 105 0 35 12819 15 136212 13141 1.8 11 6 2 8 23% 2427 69094 10131 50%
c i 14.67 20 105 0 35 12823 15 136903 13706 1.8 11 6 2 8 23% 2452 69093 10130 50%
c i 14.68 20 105 0 35 12825 15 137049 13834 1.8 11 6 2 8 23% 2455 69093 10129 50%
c i 14.70 20 104 0 35 12837 15 138379 14991 1.8 11 6 2 8 23% 2478 69091 10128 50%
c i 14.71 20 104 0 35 12841 15 138927 15436 1.8 11 6 2 8 23% 2496 69090 10127 50%
c i 14.75 20 103 0 35 12879 15 140327 16642 1.8 11 6 2 8 22% 2527 69089 10126 50%
c i 14.75 20 103 0 35 12882 15 140620 16898 1.8 11 6 2 8 22% 2537 69089 10125 50%
c i 14.77 20 102 0 35 12897 15 141700 17822 1.8 11 6 2 8 22% 2562 69086 10124 50%
c - 14.77 20 102 0 36 12897 15 141801 14770 1.8 11 6 2 7 22% 2530 69086 10124 50%
c i 14.78 20 101 0 36 12904 14 142220 15112 1.8 11 6 2 7 22% 2550 69086 10118 50%
c i 14.78 20 101 0 36 12904 14 142226 15115 1.8 11 6 2 7 22% 2550 69086 10117 50%
c i 14.78 20 101 0 36 12904 14 142254 15131 1.8 11 6 2 7 22% 2555 69085 10116 50%
c i 14.78 20 101 0 36 12904 14 142257 15131 1.8 11 6 2 7 22% 2556 69085 10115 50%
c i 14.78 20 101 0 36 12904 14 142259 15131 1.8 11 6 2 7 22% 2557 69085 10111 50%
c } 14.78 20 101 0 36 12904 14 142314 15160 1.8 11 6 2 7 22% 2560 69085 10020 49%
c
c  seconds   switched      rate          size/glue tier1    binary         remaining
c         MB   reductions    conflicts         size  tier2     irredundant
c           level   restarts        redundant    glue   trail         variables
c
c 0 14.78 20 101 0 36 12904 14 142314 15160 1.8 11 6 2 7 22% 2560 69085 10020 49%
c
c ---- [ result ] ------------------------------------------------------------
c
s UNSATISFIABLE
c
c ---- [ profiling ] ---------------------------------------------------------
c
c           9.84   66.56 %  search
c           9.84   66.56 %  focused
c           4.77   32.28 %  simplify
c           4.38   29.65 %  probe
c           1.88   12.69 %  sweep
c           1.53   10.32 %  vivify
c           0.48    3.26 %  eliminate
c           0.37    2.51 %  factor
c           0.27    1.82 %  substitute
c           0.25    1.70 %  congruence
c           0.15    1.01 %  preprocess
c           0.11    0.74 %  reduce
c           0.07    0.45 %  subsume
c           0.06    0.39 %  transitive
c           0.05    0.36 %  fastel
c           0.03    0.20 %  backbone
c           0.01    0.08 %  parse
c           0.01    0.07 %  lucky
c =============================================
c          14.78  100.00 %  total
c
c ---- [ statistics ] --------------------------------------------------------
c
c chronological:                         2099                1 %  conflicts
c conflicts:                           142314             9627.58 per second
c congruent:                              213                1 %  variables
c decisions:                          2149773               15.11 per conflict
c eliminated:                           10975               54 %  variables
c factored:                              1591                8 %  variables
c fast_eliminated:                       5369               49 %  eliminated
c fast_strengthened:                      111                8 %  per strengthened
c fast_subsumed:                           51                2 %  per subsumed
c iterations:                              45                0 %  variables
c propagations:                      72482586          4903467    per second
c reductions:                              36             3953    interval
c reordered:                                5            28463    interval
c restarts:                             12904               11    interval
c strengthened:                          1389                0 %  checks
c substituted:                            705                3 %  variables
c subsumed:                              2338                0 %  checks
c switched:                                 0                0    interval
c vivified:                             55096               21 %  checks
c
c ---- [ glue usage ] --------------------------------------------------------
c
c focused glue 2   used 62668 clauses 29.58% accumulated 59.96% tier1
c focused glue 3   used 26833 clauses 12.67% accumulated 72.62%
c focused glue 4-5 used 22535 clauses 10.64% accumulated 83.26%
c focused glue 6   used  8027 clauses  3.79% accumulated 87.05%
c focused glue 7   used  6562 clauses  3.10% accumulated 90.15% tier2
c
c ---- [ resources ] ---------------------------------------------------------
c
c maximum-resident-set-size:         23695360 bytes         23 MB
c process-time:                            15s              14.78 seconds
c
c ---- [ shutting down ] -----------------------------------------------------
c
c exit 20
